Route #1: 26 12 40 32 44 3
Route #2: 17 51 16 63 1 33 6
Route #3: 22 64 42 43 41 56 23
Route #4: 11 59 14 53 7
Route #5: 35 19 54 13 57 15 29 48 30
Route #6: 2 62 28 61 21
Route #7: 9 50 25 55 18 24 49
Route #8: 58 38 10 31 39
Route #9: 47 36 60 20 37 5 45
Route #10: 34 46 8 52 27 4
Cost 821